10J3M/DAT/10J3MNLA-15.dat
10 3
23.3056 543.151
21.2928 453.3833
15.8899 252.4889
29.5279 871.8969
17.9324 321.571
30.2754 916.5998
32.6882 1068.5184
21.4527 460.2183
21.7205 471.7801
29.315 859.3692
2072.9923