10J3M/SOL/10J3MNLA-15.sol
solution status: optimal solution found
objective value:                     81.1334666666667
x#1#2                                               1 	(obj:0)
x#2#1                                               1 	(obj:0)
x#3#1                               0.717184107709738 	(obj:0)
x#3#3                               0.282815892290262 	(obj:0)
x#4#2                                               1 	(obj:0)
x#5#3                                               1 	(obj:0)
x#6#1                                0.63185566214054 	(obj:0)
x#6#3                                0.36814433785946 	(obj:0)
x#7#2                               0.122572478519867 	(obj:0)
x#7#3                               0.877427521480133 	(obj:0)
x#8#2                               0.119928632494443 	(obj:0)
x#8#3                               0.880071367505557 	(obj:0)
x#9#2                                               1 	(obj:0)
x#10#1                                              1 	(obj:0)
z                                    81.1334666666667 	(obj:1)
